 &GLOBAL
   PRINT_LEVEL  MEDIUM
   PROJECT_NAME SiH_GeH_A
   RUN_TYPE  ENERGY
 &END GLOBAL
 &FORCE_EVAL
  METHOD  QS
  &PROPERTIES
    &TDDFPT
       NSTATES     20             # number of excited states
       MAX_ITER    200           # maximum number of Davidson iterations
       CONVERGENCE [eV] 1.0e-5   # convergence on maximum energy change between iterations
       &MGRID
          NGRIDS 25
          CUTOFF 100
       &END

       !RESTART     .TRUE.
       !WFN_RESTART_FILE_NAME RESTART.tdwfn

    &END TDDFPT
  &END PROPERTIES
  &DFT
    UKS .FALSE. 
    BASIS_SET_FILE_NAME BASIS_MOLOPT
    POTENTIAL_FILE_NAME POTENTIAL 
    &MGRID
      NGRIDS 16
      CUTOFF 500
      REL_CUTOFF 50
    &END MGRID
    &QS
      METHOD GPW
      EPS_DEFAULT 1.000E-14
    &END QS
    &POISSON
      PERIODIC XYZ 
      PSOLVER PERIODIC
    &END
    &SCF
      &DIAGONALIZATION ON
      &END DIAGONALIZATION
      &MIXING
        ALPHA 0.3
        METHOD BROYDEN_MIXING
        NBROYDEN 8
      &END MIXING
      EPS_SCF 1.0E-6
      SCF_GUESS ATOMIC
      MAX_SCF  50
      ADDED_MOS 50
    &END SCF
    &XC
      &XC_FUNCTIONAL
         &PBE
         &END PBE
      &END XC_FUNCTIONAL
      &VDW_POTENTIAL
         POTENTIAL_TYPE PAIR_POTENTIAL 
         &PAIR_POTENTIAL
            PARAMETER_FILE_NAME dftd3.dat
            TYPE DFTD3
            REFERENCE_FUNCTIONAL PBE
            R_CUTOFF [angstrom] 16
         &END
      &END VDW_POTENTIAL
    &END XC
    &PRINT
      &MULLIKEN OFF
      &END
      &HIRSHFELD OFF
      &END
      &MO ON
        FILENAME SiH_GeH_A
        EIGENVECTORS F
        EIGENVALUES F
        NDIGITS 8
      &END
      &PDOS
        APPEND T
        COMPONENTS T
        FILENAME SiH_GeH_A
      &END
      &MO_MOLDEN ON
        FILENAME
        NDIGITS 8
        GTO_KIND SPHERICAL
      &END
      !&MO_CUBES
      !  NHOMO 1 
      !  NLUMO 1 
      !  STRIDE 1 1 1 
      !  WRITE_CUBE T
      !&END
    &END PRINT
  &END DFT
  &SUBSYS

    &CELL
      A    15.92750000     0.00000000     0.00000000
      B    -7.96450770    13.78648425     0.00000000
      C    -0.00010396     0.00006001    29.78360000
      PERIODIC XYZ #Direction of applied PBC (geometry aspect)
    &END CELL
    &COORD
      Si       0.00504730    2.23686065    1.77540040
      Si       1.99580659    1.08913721    2.45684916
      Si       3.98692230    2.23686065    1.77540040
      Si       5.97768159    1.08913721    2.45684916
      Si      -1.98607962    5.68348171    1.77540040
      Si       0.00467967    4.53575827    2.45684916
      Si       1.99579538    5.68348171    1.77540040
      Si       3.98655467    4.53575827    2.45684916
      H        0.00505261    2.23575470    0.27311561
      H        1.99540286    1.09479268    3.95585775
      H        1.99128751    3.44759649    5.14869093
      H        3.98171683    2.30373973    9.03962044
      H        3.98692761    2.23575470    0.27311561
      H        5.97727786    1.09479268    3.95585775
      H       -1.99058749    3.44759649    5.14869093
      H       -0.00015817    2.30373973    9.03962044
      H       -1.98607432    5.68237576    0.27311561
      H        0.00427594    4.54141375    3.95585775
      H        3.98241444    0.00097543    5.14869093
      H        1.99058991    5.75036079    9.03962044
      H        1.99580068    5.68237576    0.27311561
      H        3.98615094    4.54141375    3.95585775
      H        0.00053944    0.00097543    5.14869093
      H       -1.99128509    5.75036079    9.03962044
      Ge       1.99096335    3.45090838    6.70518187
      Ge       3.98188162    2.30263367    7.47955547
      Ge      -1.99091165    3.45090838    6.70518187
      Ge       0.00000662    2.30263367    7.47955547
      Ge       3.98209027    0.00428732    6.70518187
      Ge       1.99075469    5.74925473    7.47955547
      Ge       0.00021527    0.00428732    6.70518187
      Ge      -1.99112031    5.74925473    7.47955547
      Si       7.96879730    2.23686065    1.77540040
      Si       9.95955659    1.08913721    2.45684916
      Si      11.95067230    2.23686065    1.77540040
      Si      13.94143159    1.08913721    2.45684916
      Si       5.97767038    5.68348171    1.77540040
      Si       7.96842967    4.53575827    2.45684916
      Si       9.95954538    5.68348171    1.77540040
      Si      11.95030467    4.53575827    2.45684916
      H        7.96880261    2.23575470    0.27311561
      H        9.95915286    1.09479268    3.95585775
      H        9.95503751    3.44759649    5.14869093
      H       11.94546683    2.30373973    9.03962044
      H       11.95067761    2.23575470    0.27311561
      H       13.94102786    1.09479268    3.95585775
      H        5.97316251    3.44759649    5.14869093
      H        7.96359183    2.30373973    9.03962044
      H        5.97767568    5.68237576    0.27311561
      H        7.96802594    4.54141375    3.95585775
      H       11.94616444    0.00097543    5.14869093
      H        9.95433991    5.75036079    9.03962044
      H        9.95955068    5.68237576    0.27311561
      H       11.94990094    4.54141375    3.95585775
      H        7.96428944    0.00097543    5.14869093
      H        5.97246491    5.75036079    9.03962044
      Ge       9.95471335    3.45090838    6.70518187
      Ge      11.94563162    2.30263367    7.47955547
      Ge       5.97283835    3.45090838    6.70518187
      Ge       7.96375662    2.30263367    7.47955547
      Ge      11.94584027    0.00428732    6.70518187
      Ge       9.95450469    5.74925473    7.47955547
      Ge       7.96396527    0.00428732    6.70518187
      Ge       5.97262969    5.74925473    7.47955547
      Si      -3.97720654    9.13010277    1.77540040
      Si      -1.98644726    7.98237933    2.45684916
      Si       0.00466846    9.13010277    1.77540040
      Si       1.99542774    7.98237933    2.45684916
      Si      -5.96833347   12.57672384    1.77540040
      Si      -3.97757418   11.42900039    2.45684916
      Si      -1.98645847   12.57672384    1.77540040
      Si       0.00430082   11.42900039    2.45684916
      H       -3.97720124    9.12899683    0.27311561
      H       -1.98685099    7.98803481    3.95585775
      H       -1.99096634   10.34083862    5.14869093
      H       -0.00053701    9.19698186    9.03962044
      H        0.00467376    9.12899683    0.27311561
      H        1.99502401    7.98803481    3.95585775
      H       -5.97284134   10.34083862    5.14869093
      H       -3.98241201    9.19698186    9.03962044
      H       -5.96832816   12.57561789    0.27311561
      H       -3.97797791   11.43465587    3.95585775
      H        0.00016059    6.89421755    5.14869093
      H       -1.99166394   12.64360292    9.03962044
      H       -1.98645316   12.57561789    0.27311561
      H        0.00389709   11.43465587    3.95585775
      H       -3.98171441    6.89421755    5.14869093
      H       -5.97353894   12.64360292    9.03962044
      Ge      -1.99129050   10.34415051    6.70518187
      Ge      -0.00037223    9.19587579    7.47955547
      Ge      -5.97316550   10.34415051    6.70518187
      Ge      -3.98224723    9.19587579    7.47955547
      Ge      -0.00016358    6.89752945    6.70518187
      Ge      -1.99149916   12.64249686    7.47955547
      Ge      -3.98203858    6.89752945    6.70518187
      Ge      -5.97337416   12.64249686    7.47955547
      Si       3.98654346    9.13010277    1.77540040
      Si       5.97730274    7.98237933    2.45684916
      Si       7.96841846    9.13010277    1.77540040
      Si       9.95917774    7.98237933    2.45684916
      Si       1.99541653   12.57672384    1.77540040
      Si       3.98617582   11.42900039    2.45684916
      Si       5.97729153   12.57672384    1.77540040
      Si       7.96805082   11.42900039    2.45684916
      H        3.98654876    9.12899683    0.27311561
      H        5.97689901    7.98803481    3.95585775
      H        5.97278366   10.34083862    5.14869093
      H        7.96321299    9.19698186    9.03962044
      H        7.96842376    9.12899683    0.27311561
      H        9.95877401    7.98803481    3.95585775
      H        1.99090866   10.34083862    5.14869093
      H        3.98133799    9.19698186    9.03962044
      H        1.99542184   12.57561789    0.27311561
      H        3.98577209   11.43465587    3.95585775
      H        7.96391059    6.89421755    5.14869093
      H        5.97208606   12.64360292    9.03962044
      H        5.97729684   12.57561789    0.27311561
      H        7.96764709   11.43465587    3.95585775
      H        3.98203559    6.89421755    5.14869093
      H        1.99021106   12.64360292    9.03962044
      Ge       5.97245950   10.34415051    6.70518187
      Ge       7.96337777    9.19587579    7.47955547
      Ge       1.99058450   10.34415051    6.70518187
      Ge       3.98150277    9.19587579    7.47955547
      Ge       7.96358642    6.89752945    6.70518187
      Ge       5.97225084   12.64249686    7.47955547
      Ge       3.98171142    6.89752945    6.70518187
      Ge       1.99037584   12.64249686    7.47955547
    &END COORD
    &KIND Si
      ELEMENT Si
      BASIS_SET DZVP-MOLOPT-SR-GTH-q4
      POTENTIAL GTH-PBE
    &END KIND
    &KIND H
      ELEMENT H
      BASIS_SET DZVP-MOLOPT-SR-GTH-q1
      POTENTIAL GTH-PBE
    &END KIND
    &KIND  Ge
     ELEMENT Ge
     BASIS_SET DZVP-MOLOPT-SR-GTH-q4
     POTENTIAL GTH-PBE
    &END KIND
  &END SUBSYS
 &END FORCE_EVAL
